45
3 38 114 95 
2 94 67 
3 111 103 35 
2 109 70 
3 115 60 21 
3 90 29 15 
3 45 5 51 
2 118 52 
3 13 105 89 
2 68 19 
3 30 57 27 
3 22 56 98 
3 18 87 24 
3 81 96 36 
3 20 78 74 
3 2 100 112 
3 101 91 65 
3 108 99 92 
3 46 17 14 
3 43 9 41 
3 76 62 80 
3 44 84 63 
3 4 54 83 
2 10 77 
3 116 39 48 
2 49 117 
2 25 31 
3 102 37 32 
3 33 104 11 
3 6 64 12 
2 61 8 
3 40 71 26 
2 58 66 
2 73 120 
3 7 107 23 
2 88 1 
3 55 50 59 
3 3 93 42 
3 106 86 119 
2 85 97 
2 82 69 
2 75 16 
2 53 28 
3 79 113 110 
3 72 34 47 
